<?xml version = "1.0" encoding="UTF-8" standalone="yes"?>
<CPLEXSolution version="1.2">
 <header
   problemName="CompactDef"
   solutionName="incumbent"
   solutionIndex="-1"
   objectiveValue="23.951851862671774"
   solutionTypeValue="3"
   solutionTypeString="primal"
   solutionStatusValue="101"
   solutionStatusString="integer optimal solution"
   solutionMethodString="mip"
   primalFeasible="1"
   dualFeasible="1"
   MIPNodes="0"
   MIPIterations="0"
   writeLevel="1"/>
 <quality
   epInt="1.0000000000000001e-05"
   epRHS="9.9999999999999995e-07"
   maxIntInfeas="2.2204460492503131e-16"
   maxPrimalInfeas="4.4408920985006262e-16"
   maxX="3"
   maxSlack="4"/>
 <linearConstraints>
  <constraint name="TotalValue27" index="0" slack="0.78400000000000036"/>
  <constraint name="TotalValue28" index="1" slack="0"/>
  <constraint name="TotalValue29" index="2" slack="0.56799999999999962"/>
  <constraint name="TotalValue30" index="3" slack="-1.1102230246251565e-16"/>
  <constraint name="TotalValue31" index="4" slack="1.5679999999999996"/>
  <constraint name="SumResources4,1" index="5" slack="0"/>
  <constraint name="Overflow27,4,1" index="6" slack="8.8817841970012504e-16"/>
  <constraint name="Overflow28,4,1" index="7" slack="0"/>
  <constraint name="Overflow29,4,1" index="8" slack="0"/>
  <constraint name="Overflow30,4,1" index="9" slack="0"/>
  <constraint name="Overflow31,4,1" index="10" slack="3.9999999999999991"/>
  <constraint name="SumResources4,2" index="11" slack="0"/>
  <constraint name="Overflow27,4,2" index="12" slack="8.8817841970012504e-16"/>
  <constraint name="Overflow28,4,2" index="13" slack="0"/>
  <constraint name="Overflow29,4,2" index="14" slack="0"/>
  <constraint name="Overflow30,4,2" index="15" slack="0"/>
  <constraint name="Overflow31,4,2" index="16" slack="3.9999999999999991"/>
  <constraint name="SumResources4,3" index="17" slack="0"/>
  <constraint name="Overflow27,4,3" index="18" slack="4"/>
  <constraint name="Overflow28,4,3" index="19" slack="0"/>
  <constraint name="Overflow29,4,3" index="20" slack="0"/>
  <constraint name="Overflow30,4,3" index="21" slack="0"/>
  <constraint name="Overflow31,4,3" index="22" slack="0"/>
  <constraint name="SumResources4" index="23" slack="0"/>
 </linearConstraints>
 <variables>
  <variable name="Path27,4,1" index="0" value="2.2204460492503126e-16"/>
  <variable name="OV27,28,4,1" index="1" value="0"/>
  <variable name="OV27,29,4,1" index="2" value="0"/>
  <variable name="OV27,30,4,1" index="3" value="2.2204460492503131e-16"/>
  <variable name="OV27,31,4,1" index="4" value="0"/>
  <variable name="Path28,4,1" index="5" value="0"/>
  <variable name="OV28,27,4,1" index="6" value="0"/>
  <variable name="OV28,29,4,1" index="7" value="0"/>
  <variable name="OV28,30,4,1" index="8" value="0"/>
  <variable name="OV28,31,4,1" index="9" value="0"/>
  <variable name="Path29,4,1" index="10" value="0"/>
  <variable name="OV29,27,4,1" index="11" value="0"/>
  <variable name="OV29,28,4,1" index="12" value="0"/>
  <variable name="OV29,30,4,1" index="13" value="0"/>
  <variable name="OV29,31,4,1" index="14" value="0"/>
  <variable name="Path30,4,1" index="15" value="0"/>
  <variable name="OV30,27,4,1" index="16" value="0"/>
  <variable name="OV30,28,4,1" index="17" value="0"/>
  <variable name="OV30,29,4,1" index="18" value="0"/>
  <variable name="OV30,31,4,1" index="19" value="0"/>
  <variable name="Path31,4,1" index="20" value="0.99999999999999978"/>
  <variable name="OV31,27,4,1" index="21" value="0"/>
  <variable name="OV31,28,4,1" index="22" value="0"/>
  <variable name="OV31,29,4,1" index="23" value="1"/>
  <variable name="OV31,30,4,1" index="24" value="0"/>
  <variable name="Path27,4,2" index="25" value="2.2204460492503126e-16"/>
  <variable name="OV27,28,4,2" index="26" value="0"/>
  <variable name="OV27,29,4,2" index="27" value="0"/>
  <variable name="OV27,30,4,2" index="28" value="2.2204460492503131e-16"/>
  <variable name="OV27,31,4,2" index="29" value="0"/>
  <variable name="Path28,4,2" index="30" value="0"/>
  <variable name="OV28,27,4,2" index="31" value="0"/>
  <variable name="OV28,29,4,2" index="32" value="0"/>
  <variable name="OV28,30,4,2" index="33" value="0"/>
  <variable name="OV28,31,4,2" index="34" value="0"/>
  <variable name="Path29,4,2" index="35" value="0"/>
  <variable name="OV29,27,4,2" index="36" value="0"/>
  <variable name="OV29,28,4,2" index="37" value="0"/>
  <variable name="OV29,30,4,2" index="38" value="0"/>
  <variable name="OV29,31,4,2" index="39" value="0"/>
  <variable name="Path30,4,2" index="40" value="0"/>
  <variable name="OV30,27,4,2" index="41" value="0"/>
  <variable name="OV30,28,4,2" index="42" value="0"/>
  <variable name="OV30,29,4,2" index="43" value="0"/>
  <variable name="OV30,31,4,2" index="44" value="0"/>
  <variable name="Path31,4,2" index="45" value="0.99999999999999978"/>
  <variable name="OV31,27,4,2" index="46" value="0"/>
  <variable name="OV31,28,4,2" index="47" value="0"/>
  <variable name="OV31,29,4,2" index="48" value="1"/>
  <variable name="OV31,30,4,2" index="49" value="0"/>
  <variable name="Path27,4,3" index="50" value="1"/>
  <variable name="OV27,28,4,3" index="51" value="0"/>
  <variable name="OV27,29,4,3" index="52" value="0"/>
  <variable name="OV27,30,4,3" index="53" value="1.0000000000000002"/>
  <variable name="OV27,31,4,3" index="54" value="0"/>
  <variable name="Path28,4,3" index="55" value="0"/>
  <variable name="OV28,27,4,3" index="56" value="0"/>
  <variable name="OV28,29,4,3" index="57" value="0"/>
  <variable name="OV28,30,4,3" index="58" value="0"/>
  <variable name="OV28,31,4,3" index="59" value="0"/>
  <variable name="Path29,4,3" index="60" value="0"/>
  <variable name="OV29,27,4,3" index="61" value="0"/>
  <variable name="OV29,28,4,3" index="62" value="0"/>
  <variable name="OV29,30,4,3" index="63" value="0"/>
  <variable name="OV29,31,4,3" index="64" value="0"/>
  <variable name="Path30,4,3" index="65" value="0"/>
  <variable name="OV30,27,4,3" index="66" value="0"/>
  <variable name="OV30,28,4,3" index="67" value="0"/>
  <variable name="OV30,29,4,3" index="68" value="0"/>
  <variable name="OV30,31,4,3" index="69" value="0"/>
  <variable name="Path31,4,3" index="70" value="0"/>
  <variable name="OV31,27,4,3" index="71" value="0"/>
  <variable name="OV31,28,4,3" index="72" value="0"/>
  <variable name="OV31,29,4,3" index="73" value="0"/>
  <variable name="OV31,30,4,3" index="74" value="0"/>
  <variable name="PathValue27" index="75" value="0"/>
  <variable name="PathValue28" index="76" value="0"/>
  <variable name="PathValue29" index="77" value="1.0000000000000004"/>
  <variable name="PathValue30" index="78" value="0.7840000000000007"/>
  <variable name="PathValue31" index="79" value="0"/>
  <variable name="Resource,1" index="80" value="0"/>
  <variable name="Resource,2" index="81" value="0"/>
  <variable name="Resource,3" index="82" value="0"/>
  <variable name="Resource,4,1" index="83" value="1"/>
  <variable name="Resource,4,2" index="84" value="1"/>
  <variable name="Resource,4,3" index="85" value="1"/>
  <variable name="Resource,4" index="86" value="3"/>
  <variable name="Resource,5" index="87" value="0"/>
  <variable name="Resource,6" index="88" value="0"/>
 </variables>
</CPLEXSolution>
